0
Node Left Objective IInf Best_Integer Best_Bound ItCnt Gap
0+ 0 nan nan 136.4723 0.0000 nan 100.00%
0+ 0 nan nan 99.1655 0.0000 nan 100.00%
0 0 0.0000 27 99.1655 0.0000 121 100.00%
0+ 0 nan nan 96.1103 0.0000 nan 100.00%
0 2 0.0000 24 96.1103 0.0000 121 100.00%
CPXPARAM_MIP_Cuts_LiftProj-MIRCut:LiftProj 0
CPXPARAM_MIP_Cuts_LiftProj-MIRCut:MIRCut 0
1
Node Left Objective IInf Best_Integer Best_Bound ItCnt Gap
0+ 0 nan nan 136.4723 0.0000 nan 100.00%
0+ 0 nan nan 99.1655 0.0000 nan 100.00%
0 0 0.0000 27 99.1655 0.0000 118 100.00%
0+ 0 nan nan 78.3951 0.0000 nan 100.00%
0 0 0.0000 18 78.3951 LiftProj:1 124 100.00%
0 0 0.0000 18 78.3951 LiftProj:1 127 100.00%
0+ 0 nan nan 70.9781 0.0000 nan 100.00%
0+ 0 nan nan 61.3518 0.0000 nan 100.00%
0 2 0.0000 18 61.3518 0.0000 127 100.00%
CPXPARAM_MIP_Cuts_LiftProj-MIRCut:LiftProj 0
CPXPARAM_MIP_Cuts_LiftProj-MIRCut:MIRCut 2
2
Node Left Objective IInf Best_Integer Best_Bound ItCnt Gap
0+ 0 nan nan 136.4723 0.0000 nan 100.00%
0+ 0 nan nan 69.8576 0.0000 nan 100.00%
0 0 0.0000 23 69.8576 0.0000 119 100.00%
0 0 0.0000 20 69.8576 LiftProj:2 132 100.00%
0+ 0 nan nan 68.3114 0.0000 nan 100.00%
0+ 0 nan nan 58.7959 0.0000 nan 100.00%
0 2 0.0000 19 58.7959 0.0000 132 100.00%
CPXPARAM_MIP_Cuts_LiftProj-MIRCut:LiftProj 0
CPXPARAM_MIP_Cuts_LiftProj-MIRCut:MIRCut 2
3
Node Left Objective IInf Best_Integer Best_Bound ItCnt Gap
0+ 0 nan nan 136.4723 0.0000 nan 100.00%
0 0 0.0000 24 136.4723 0.0000 102 100.00%
0+ 0 nan nan 41.1390 0.0000 nan 100.00%
0+ 0 nan nan 32.1032 0.0000 nan 100.00%
0 2 0.0000 13 32.1032 0.0000 102 100.00%
CPXPARAM_MIP_Cuts_LiftProj-MIRCut:LiftProj 0
CPXPARAM_MIP_Cuts_LiftProj-MIRCut:MIRCut 0
4
Node Left Objective IInf Best_Integer Best_Bound ItCnt Gap
0+ 0 nan nan 115.1924 0.0000 nan 100.00%
0+ 0 nan nan 108.1598 0.0000 nan 100.00%
0+ 0 nan nan 98.2525 0.0000 nan 100.00%
0 0 0.0000 27 98.2525 0.0000 128 100.00%
0 0 0.0000 24 98.2525 LiftProj:1 130 100.00%
0+ 0 nan nan 89.4083 0.0000 nan 100.00%
0 0 0.0000 25 89.4083 Cuts:3 147 100.00%
0 0 0.0000 24 89.4083 Cuts:2 152 100.00%
0+ 0 nan nan 75.6176 0.0000 nan 100.00%
0+ 0 nan nan 69.7547 0.0000 nan 100.00%
0 2 0.0000 24 69.7547 0.0000 152 100.00%
CPXPARAM_MIP_Cuts_LiftProj-MIRCut:LiftProj 1
CPXPARAM_MIP_Cuts_LiftProj-MIRCut:MIRCut 2
5
Node Left Objective IInf Best_Integer Best_Bound ItCnt Gap
0+ 0 nan nan 115.1924 0.0000 nan 100.00%
0+ 0 nan nan 108.1598 0.0000 nan 100.00%
0+ 0 nan nan 79.8300 0.0000 nan 100.00%
0 0 0.0000 27 79.8300 0.0000 120 100.00%
0+ 0 nan nan 74.4608 0.0000 nan 100.00%
0+ 0 nan nan 65.3033 0.0000 nan 100.00%
0+ 0 nan nan 49.2242 0.0000 nan 100.00%
0 2 0.0000 18 49.2242 0.0000 120 100.00%
CPXPARAM_MIP_Cuts_LiftProj-MIRCut:LiftProj 0
CPXPARAM_MIP_Cuts_LiftProj-MIRCut:MIRCut 0
6
Node Left Objective IInf Best_Integer Best_Bound ItCnt Gap
0+ 0 nan nan 115.1924 0.0000 nan 100.00%
0+ 0 nan nan 81.9438 0.0000 nan 100.00%
0 0 0.0000 23 81.9438 0.0000 119 100.00%
0+ 0 nan nan 80.6567 0.0000 nan 100.00%
0+ 0 nan nan 72.5973 0.0000 nan 100.00%
0+ 0 nan nan 64.2641 0.0000 nan 100.00%
0+ 0 nan nan 52.9380 0.0000 nan 100.00%
0 2 0.0000 21 52.9380 0.0000 119 100.00%
CPXPARAM_MIP_Cuts_LiftProj-MIRCut:LiftProj 0
CPXPARAM_MIP_Cuts_LiftProj-MIRCut:MIRCut 0
7
Node Left Objective IInf Best_Integer Best_Bound ItCnt Gap
0+ 0 nan nan 115.1924 0.0000 nan 100.00%
0+ 0 nan nan 81.9438 0.0000 nan 100.00%
0 0 0.0000 23 81.9438 0.0000 110 100.00%
0+ 0 nan nan 71.2025 0.0000 nan 100.00%
0+ 0 nan nan 70.3682 0.0000 nan 100.00%
0+ 0 nan nan 60.6180 0.0000 nan 100.00%
0 2 0.0000 13 60.6180 0.0000 110 100.00%
CPXPARAM_MIP_Cuts_LiftProj-MIRCut:LiftProj 0
CPXPARAM_MIP_Cuts_LiftProj-MIRCut:MIRCut 0
8
Node Left Objective IInf Best_Integer Best_Bound ItCnt Gap
0+ 0 nan nan 131.6037 0.0000 nan 100.00%
0+ 0 nan nan 111.2422 0.0000 nan 100.00%
0 0 0.0000 27 111.2422 0.0000 112 100.00%
0 0 0.0000 25 111.2422 LiftProj:1 113 100.00%
0+ 0 nan nan 110.4315 0.0000 nan 100.00%
0 0 0.0000 26 110.4315 LiftProj:6 135 100.00%
0 0 0.0000 24 110.4315 LiftProj:3 150 100.00%
0+ 0 nan nan 108.0369 0.0000 nan 100.00%
0+ 0 nan nan 94.5560 0.0000 nan 100.00%
0 2 0.0000 24 94.5560 0.0000 150 100.00%
CPXPARAM_MIP_Cuts_LiftProj-MIRCut:LiftProj 0
CPXPARAM_MIP_Cuts_LiftProj-MIRCut:MIRCut 2
9
Node Left Objective IInf Best_Integer Best_Bound ItCnt Gap
0+ 0 nan nan 131.6037 0.0000 nan 100.00%
0+ 0 nan nan 111.2422 0.0000 nan 100.00%
0 0 0.0000 27 111.2422 0.0000 126 100.00%
0+ 0 nan nan 81.5623 0.0000 nan 100.00%
0+ 0 nan nan 81.1793 0.0000 nan 100.00%
0+ 0 nan nan 72.4663 0.0000 nan 100.00%
0+ 0 nan nan 67.1615 0.0000 nan 100.00%
0 2 0.0000 18 67.1615 0.0000 126 100.00%
CPXPARAM_MIP_Cuts_LiftProj-MIRCut:LiftProj 0
CPXPARAM_MIP_Cuts_LiftProj-MIRCut:MIRCut 0
10
Node Left Objective IInf Best_Integer Best_Bound ItCnt Gap
0+ 0 nan nan 131.6037 0.0000 nan 100.00%
0+ 0 nan nan 99.6733 0.0000 nan 100.00%
0 0 0.0000 23 99.6733 0.0000 121 100.00%
0 0 0.0000 20 99.6733 LiftProj:1 130 100.00%
0+ 0 nan nan 97.3619 0.0000 nan 100.00%
0 0 0.0000 21 97.3619 LiftProj:2 137 100.00%
0+ 0 nan nan 97.2750 0.0000 nan 100.00%
0+ 0 nan nan 78.4052 0.0000 nan 100.00%
0 2 0.0000 20 78.4052 0.0000 137 100.00%
CPXPARAM_MIP_Cuts_LiftProj-MIRCut:LiftProj 0
CPXPARAM_MIP_Cuts_LiftProj-MIRCut:MIRCut 0
11
Node Left Objective IInf Best_Integer Best_Bound ItCnt Gap
0+ 0 nan nan 131.6037 0.0000 nan 100.00%
0+ 0 nan nan 99.6733 0.0000 nan 100.00%
0 0 0.0000 23 99.6733 0.0000 127 100.00%
0+ 0 nan nan 63.9599 0.0000 nan 100.00%
0+ 0 nan nan 62.6718 0.0000 nan 100.00%
0 2 0.0000 13 62.6718 0.0000 127 100.00%
CPXPARAM_MIP_Cuts_LiftProj-MIRCut:LiftProj 0
CPXPARAM_MIP_Cuts_LiftProj-MIRCut:MIRCut 0
12
Node Left Objective IInf Best_Integer Best_Bound ItCnt Gap
0+ 0 nan nan 110.3567 0.0000 nan 100.00%
0+ 0 nan nan 96.6816 0.0000 nan 100.00%
0 0 0.0000 27 96.6816 0.0000 120 100.00%
0+ 0 nan nan 91.3689 0.0000 nan 100.00%
0+ 0 nan nan 76.0951 0.0000 nan 100.00%
0 2 0.0000 24 76.0951 0.0000 120 100.00%
CPXPARAM_MIP_Cuts_LiftProj-MIRCut:LiftProj 0
CPXPARAM_MIP_Cuts_LiftProj-MIRCut:MIRCut 0
13
Node Left Objective IInf Best_Integer Best_Bound ItCnt Gap
0+ 0 nan nan 110.3567 0.0000 nan 100.00%
0+ 0 nan nan 96.6816 0.0000 nan 100.00%
0 0 0.0000 27 96.6816 0.0000 117 100.00%
0+ 0 nan nan 78.4067 0.0000 nan 100.00%
0+ 0 nan nan 77.0292 0.0000 nan 100.00%
0+ 0 nan nan 61.4553 0.0000 nan 100.00%
0 2 0.0000 18 61.4553 0.0000 117 100.00%
CPXPARAM_MIP_Cuts_LiftProj-MIRCut:LiftProj 0
CPXPARAM_MIP_Cuts_LiftProj-MIRCut:MIRCut 0
14
Node Left Objective IInf Best_Integer Best_Bound ItCnt Gap
0+ 0 nan nan 110.3567 0.0000 nan 100.00%
0+ 0 nan nan 82.1268 0.0000 nan 100.00%
0 0 0.0000 23 82.1268 0.0000 114 100.00%
0+ 0 nan nan 74.7672 0.0000 nan 100.00%
0 2 0.0000 19 74.7672 0.0000 114 100.00%
CPXPARAM_MIP_Cuts_LiftProj-MIRCut:LiftProj 0
CPXPARAM_MIP_Cuts_LiftProj-MIRCut:MIRCut 0
15
Node Left Objective IInf Best_Integer Best_Bound ItCnt Gap
0+ 0 nan nan 110.3567 0.0000 nan 100.00%
0+ 0 nan nan 82.1268 0.0000 nan 100.00%
0 0 0.0000 23 82.1268 0.0000 111 100.00%
0+ 0 nan nan 53.3052 0.0000 nan 100.00%
0+ 0 nan nan 50.7826 0.0000 nan 100.00%
0 2 0.0000 13 50.7826 0.0000 111 100.00%
CPXPARAM_MIP_Cuts_LiftProj-MIRCut:LiftProj 0
CPXPARAM_MIP_Cuts_LiftProj-MIRCut:MIRCut 0
16
Node Left Objective IInf Best_Integer Best_Bound ItCnt Gap
0+ 0 nan nan 109.2984 0.0000 nan 100.00%
0+ 0 nan nan 97.6971 0.0000 nan 100.00%
0 0 0.0000 27 97.6971 0.0000 122 100.00%
0+ 0 nan nan 97.4587 0.0000 nan 100.00%
0+ 0 nan nan 96.9730 0.0000 nan 100.00%
0+ 0 nan nan 91.7514 0.0000 nan 100.00%
0+ 0 nan nan 87.2211 0.0000 nan 100.00%
0+ 0 nan nan 84.6796 0.0000 nan 100.00%
0 2 0.0000 24 84.6796 0.0000 122 100.00%
CPXPARAM_MIP_Cuts_LiftProj-MIRCut:LiftProj 0
CPXPARAM_MIP_Cuts_LiftProj-MIRCut:MIRCut 0
17
Node Left Objective IInf Best_Integer Best_Bound ItCnt Gap
0+ 0 nan nan 109.2984 0.0000 nan 100.00%
0+ 0 nan nan 97.6971 0.0000 nan 100.00%
0 0 0.0000 27 97.6971 0.0000 113 100.00%
0+ 0 nan nan 69.1781 0.0000 nan 100.00%
0+ 0 nan nan 66.1806 0.0000 nan 100.00%
0+ 0 nan nan 51.0931 0.0000 nan 100.00%
0 2 0.0000 18 51.0931 0.0000 113 100.00%
CPXPARAM_MIP_Cuts_LiftProj-MIRCut:LiftProj 0
CPXPARAM_MIP_Cuts_LiftProj-MIRCut:MIRCut 0
18
Node Left Objective IInf Best_Integer Best_Bound ItCnt Gap
0+ 0 nan nan 109.2984 0.0000 nan 100.00%
0+ 0 nan nan 86.6088 0.0000 nan 100.00%
0 0 0.0000 23 86.6088 0.0000 119 100.00%
0 0 0.0000 19 86.6088 LiftProj:1 121 100.00%
0+ 0 nan nan 80.8124 0.0000 nan 100.00%
0 0 0.0000 20 80.8124 LiftProj:1 125 100.00%
0 0 0.0000 20 80.8124 LiftProj:1 132 100.00%
0+ 0 nan nan 68.3350 0.0000 nan 100.00%
0 2 0.0000 20 68.3350 0.0000 132 100.00%
CPXPARAM_MIP_Cuts_LiftProj-MIRCut:LiftProj 0
CPXPARAM_MIP_Cuts_LiftProj-MIRCut:MIRCut 3
19
Node Left Objective IInf Best_Integer Best_Bound ItCnt Gap
0+ 0 nan nan 109.2984 0.0000 nan 100.00%
0+ 0 nan nan 86.6088 0.0000 nan 100.00%
0 0 0.0000 25 86.6088 0.0000 112 100.00%
0+ 0 nan nan 58.2160 0.0000 nan 100.00%
0 0 0.0000 14 58.2160 LiftProj:1 118 100.00%
0+ 0 nan nan 51.4760 0.0000 nan 100.00%
0 0 0.0000 14 51.4760 LiftProj:1 128 100.00%
0+ 0 nan nan 34.5790 0.0000 nan 100.00%
0 0 0.0000 15 34.5790 LiftProj:1 141 100.00%
0+ 0 nan nan 23.2353 0.0000 nan 100.00%
0 2 0.0000 14 23.2353 0.0000 141 100.00%
CPXPARAM_MIP_Cuts_LiftProj-MIRCut:LiftProj 0
CPXPARAM_MIP_Cuts_LiftProj-MIRCut:MIRCut 0
20
Node Left Objective IInf Best_Integer Best_Bound ItCnt Gap
0+ 0 nan nan 93.3792 0.0000 nan 100.00%
0+ 0 nan nan 84.6822 0.0000 nan 100.00%
0 0 0.0000 27 84.6822 0.0000 123 100.00%
0+ 0 nan nan 70.9667 0.0000 nan 100.00%
0 0 0.0000 24 70.9667 LiftProj:3 128 100.00%
0+ 0 nan nan 69.4584 0.0000 nan 100.00%
0 0 0.0000 25 69.4584 LiftProj:2 156 100.00%
0 0 0.0000 24 69.4584 LiftProj:1 161 100.00%
0+ 0 nan nan 68.9269 0.0000 nan 100.00%
0+ 0 nan nan 66.7128 0.0000 nan 100.00%
0 2 0.0000 24 66.7128 0.0000 161 100.00%
CPXPARAM_MIP_Cuts_LiftProj-MIRCut:LiftProj 0
CPXPARAM_MIP_Cuts_LiftProj-MIRCut:MIRCut 3
21
Node Left Objective IInf Best_Integer Best_Bound ItCnt Gap
0+ 0 nan nan 93.3792 0.0000 nan 100.00%
0+ 0 nan nan 84.6822 0.0000 nan 100.00%
0 0 0.0000 27 84.6822 0.0000 129 100.00%
0+ 0 nan nan 53.3525 0.0000 nan 100.00%
0 0 0.0000 18 53.3525 LiftProj:1 134 100.00%
0 0 0.0000 18 53.3525 LiftProj:3 152 100.00%
0 0 0.0000 20 53.3525 LiftProj:3 159 100.00%
0+ 0 nan nan 43.1556 0.0000 nan 100.00%
0 2 0.0000 18 43.1556 0.0000 159 100.00%
CPXPARAM_MIP_Cuts_LiftProj-MIRCut:LiftProj 0
CPXPARAM_MIP_Cuts_LiftProj-MIRCut:MIRCut 0
22
Node Left Objective IInf Best_Integer Best_Bound ItCnt Gap
0+ 0 nan nan 93.3792 0.0000 nan 100.00%
0+ 0 nan nan 77.4137 0.0000 nan 100.00%
0 0 0.0000 23 77.4137 0.0000 122 100.00%
0+ 0 nan nan 61.3589 0.0000 nan 100.00%
0 0 0.0000 19 61.3589 LiftProj:2 127 100.00%
0+ 0 nan nan 58.3501 0.0000 nan 100.00%
0 0 0.0000 19 58.3501 LiftProj:3 156 100.00%
0 0 0.0000 20 58.3501 LiftProj:3 175 100.00%
0+ 0 nan nan 48.6622 0.0000 nan 100.00%
0+ 0 nan nan 48.4870 0.0000 nan 100.00%
0 2 0.0000 20 48.4870 0.0000 175 100.00%
CPXPARAM_MIP_Cuts_LiftProj-MIRCut:LiftProj 0
CPXPARAM_MIP_Cuts_LiftProj-MIRCut:MIRCut 4
23
Node Left Objective IInf Best_Integer Best_Bound ItCnt Gap
0+ 0 nan nan 93.3792 0.0000 nan 100.00%
0+ 0 nan nan 77.4137 0.0000 nan 100.00%
0 0 0.0000 23 77.4137 0.0000 112 100.00%
0+ 0 nan nan 50.0593 0.0000 nan 100.00%
0+ 0 nan nan 37.3427 0.0000 nan 100.00%
0 2 0.0000 13 37.3427 0.0000 112 100.00%
CPXPARAM_MIP_Cuts_LiftProj-MIRCut:LiftProj 0
CPXPARAM_MIP_Cuts_LiftProj-MIRCut:MIRCut 0
24
Node Left Objective IInf Best_Integer Best_Bound ItCnt Gap
0+ 0 nan nan 94.5045 0.0000 nan 100.00%
0+ 0 nan nan 83.7373 0.0000 nan 100.00%
0 0 0.0000 27 83.7373 0.0000 126 100.00%
0+ 0 nan nan 81.1267 0.0000 nan 100.00%
0 0 0.0000 24 81.1267 LiftProj:2 135 100.00%
0+ 0 nan nan 79.0526 0.0000 nan 100.00%
0 0 0.0000 24 79.0526 LiftProj:1 146 100.00%
0 0 0.0000 25 79.0526 LiftProj:1 161 100.00%
0+ 0 nan nan 78.9137 0.0000 nan 100.00%
0+ 0 nan nan 66.7264 0.0000 nan 100.00%
0 2 0.0000 24 66.7264 0.0000 161 100.00%
CPXPARAM_MIP_Cuts_LiftProj-MIRCut:LiftProj 0
CPXPARAM_MIP_Cuts_LiftProj-MIRCut:MIRCut 0
25
Node Left Objective IInf Best_Integer Best_Bound ItCnt Gap
0+ 0 nan nan 94.5045 0.0000 nan 100.00%
0+ 0 nan nan 83.7373 0.0000 nan 100.00%
0 0 0.0000 27 83.7373 0.0000 113 100.00%
0+ 0 nan nan 57.0887 0.0000 nan 100.00%
0+ 0 nan nan 44.4023 0.0000 nan 100.00%
0 2 0.0000 18 44.4023 0.0000 113 100.00%
CPXPARAM_MIP_Cuts_LiftProj-MIRCut:LiftProj 0
CPXPARAM_MIP_Cuts_LiftProj-MIRCut:MIRCut 0
26
Node Left Objective IInf Best_Integer Best_Bound ItCnt Gap
0+ 0 nan nan 94.5045 0.0000 nan 100.00%
0+ 0 nan nan 77.4984 0.0000 nan 100.00%
0 0 0.0000 22 77.4984 0.0000 104 100.00%
0+ 0 nan nan 68.7941 0.0000 nan 100.00%
0 0 0.0000 19 68.7941 LiftProj:1 110 100.00%
0+ 0 nan nan 68.7770 0.0000 nan 100.00%
0 0 0.0000 20 68.7770 LiftProj:1 123 100.00%
0 0 0.0000 21 68.7770 LiftProj:2 143 100.00%
0+ 0 nan nan 66.6135 0.0000 nan 100.00%
0 2 0.0000 19 66.6135 0.0000 143 100.00%
CPXPARAM_MIP_Cuts_LiftProj-MIRCut:LiftProj 0
CPXPARAM_MIP_Cuts_LiftProj-MIRCut:MIRCut 1
27
Node Left Objective IInf Best_Integer Best_Bound ItCnt Gap
0+ 0 nan nan 94.5045 0.0000 nan 100.00%
0 0 0.0000 23 94.5045 0.0000 105 100.00%
0+ 0 nan nan 26.1158 0.0000 nan 100.00%
0 2 0.0000 13 26.1158 0.0000 105 100.00%
CPXPARAM_MIP_Cuts_LiftProj-MIRCut:LiftProj 0
CPXPARAM_MIP_Cuts_LiftProj-MIRCut:MIRCut 0
28
Node Left Objective IInf Best_Integer Best_Bound ItCnt Gap
0+ 0 nan nan 133.7092 0.0000 nan 100.00%
0+ 0 nan nan 129.6212 0.0000 nan 100.00%
0+ 0 nan nan 108.6480 0.0000 nan 100.00%
0 0 0.0000 27 108.6480 0.0000 115 100.00%
0 0 0.0000 25 108.6480 LiftProj:1 126 100.00%
0+ 0 nan nan 104.2364 0.0000 nan 100.00%
0 0 0.0000 26 104.2364 LiftProj:2 146 100.00%
0+ 0 nan nan 104.1474 0.0000 nan 100.00%
0+ 0 nan nan 103.2715 0.0000 nan 100.00%
0 2 0.0000 25 103.2715 0.0000 146 100.00%
CPXPARAM_MIP_Cuts_LiftProj-MIRCut:LiftProj 0
CPXPARAM_MIP_Cuts_LiftProj-MIRCut:MIRCut 2
29
Node Left Objective IInf Best_Integer Best_Bound ItCnt Gap
0+ 0 nan nan 133.7092 0.0000 nan 100.00%
0+ 0 nan nan 129.6212 0.0000 nan 100.00%
0 0 0.0000 27 129.6212 0.0000 114 100.00%
0+ 0 nan nan 97.5918 0.0000 nan 100.00%
0 0 0.0000 18 97.5918 LiftProj:2 116 100.00%
0+ 0 nan nan 84.6484 0.0000 nan 100.00%
0 0 0.0000 19 84.6484 LiftProj:2 124 100.00%
0 0 0.0000 18 84.6484 LiftProj:1 131 100.00%
0+ 0 nan nan 80.6136 0.0000 nan 100.00%
0+ 0 nan nan 77.0136 0.0000 nan 100.00%
0 2 0.0000 18 77.0136 0.0000 131 100.00%
CPXPARAM_MIP_Cuts_LiftProj-MIRCut:LiftProj 0
CPXPARAM_MIP_Cuts_LiftProj-MIRCut:MIRCut 1
30
Node Left Objective IInf Best_Integer Best_Bound ItCnt Gap
0+ 0 nan nan 133.7092 0.0000 nan 100.00%
0+ 0 nan nan 114.7297 0.0000 nan 100.00%
0 0 0.0000 22 114.7297 0.0000 117 100.00%
0+ 0 nan nan 105.5743 0.0000 nan 100.00%
0+ 0 nan nan 94.2191 0.0000 nan 100.00%
0+ 0 nan nan 83.8364 0.0000 nan 100.00%
0 2 0.0000 19 83.8364 0.0000 117 100.00%
CPXPARAM_MIP_Cuts_LiftProj-MIRCut:LiftProj 0
CPXPARAM_MIP_Cuts_LiftProj-MIRCut:MIRCut 0
31
Node Left Objective IInf Best_Integer Best_Bound ItCnt Gap
0+ 0 nan nan 133.7092 0.0000 nan 100.00%
0+ 0 nan nan 114.7297 0.0000 nan 100.00%
0 0 0.0000 22 114.7297 0.0000 119 100.00%
0+ 0 nan nan 72.7936 0.0000 nan 100.00%
0+ 0 nan nan 67.0189 0.0000 nan 100.00%
0+ 0 nan nan 50.7271 0.0000 nan 100.00%
0 2 0.0000 13 50.7271 0.0000 119 100.00%
CPXPARAM_MIP_Cuts_LiftProj-MIRCut:LiftProj 0
CPXPARAM_MIP_Cuts_LiftProj-MIRCut:MIRCut 0
32
Node Left Objective IInf Best_Integer Best_Bound ItCnt Gap
0+ 0 nan nan 110.7059 0.0000 nan 100.00%
0+ 0 nan nan 93.8685 0.0000 nan 100.00%
0+ 0 nan nan 88.1652 0.0000 nan 100.00%
0 0 0.0000 27 88.1652 0.0000 130 100.00%
0 0 0.0000 26 88.1652 LiftProj:2 142 100.00%
0 0 0.0000 26 88.1652 LiftProj:5 151 100.00%
0+ 0 nan nan 83.1256 0.0000 nan 100.00%
0+ 0 nan nan 69.4112 0.0000 nan 100.00%
0 2 0.0000 25 69.4112 0.0000 151 100.00%
CPXPARAM_MIP_Cuts_LiftProj-MIRCut:LiftProj 0
CPXPARAM_MIP_Cuts_LiftProj-MIRCut:MIRCut 2
33
Node Left Objective IInf Best_Integer Best_Bound ItCnt Gap
0+ 0 nan nan 110.7059 0.0000 nan 100.00%
0+ 0 nan nan 93.8685 0.0000 nan 100.00%
0 0 0.0000 27 93.8685 0.0000 120 100.00%
0+ 0 nan nan 67.8253 0.0000 nan 100.00%
0 0 0.0000 18 67.8253 LiftProj:2 129 100.00%
0 0 0.0000 19 67.8253 LiftProj:2 147 100.00%
0+ 0 nan nan 65.1311 0.0000 nan 100.00%
0+ 0 nan nan 63.6114 0.0000 nan 100.00%
0+ 0 nan nan 56.8020 0.0000 nan 100.00%
0 2 0.0000 18 56.8020 0.0000 147 100.00%
CPXPARAM_MIP_Cuts_LiftProj-MIRCut:LiftProj 0
CPXPARAM_MIP_Cuts_LiftProj-MIRCut:MIRCut 0
34
Node Left Objective IInf Best_Integer Best_Bound ItCnt Gap
0+ 0 nan nan 110.7059 0.0000 nan 100.00%
0+ 0 nan nan 74.9711 0.0000 nan 100.00%
0 0 0.0000 23 74.9711 0.0000 119 100.00%
0+ 0 nan nan 70.1819 0.0000 nan 100.00%
0 0 0.0000 19 70.1819 LiftProj:1 125 100.00%
0+ 0 nan nan 67.4782 0.0000 nan 100.00%
0+ 0 nan nan 61.3096 0.0000 nan 100.00%
0 2 0.0000 19 61.3096 0.0000 125 100.00%
CPXPARAM_MIP_Cuts_LiftProj-MIRCut:LiftProj 0
CPXPARAM_MIP_Cuts_LiftProj-MIRCut:MIRCut 0
35
Node Left Objective IInf Best_Integer Best_Bound ItCnt Gap
0+ 0 nan nan 110.7059 0.0000 nan 100.00%
0+ 0 nan nan 74.9711 0.0000 nan 100.00%
0 0 0.0000 24 74.9711 0.0000 114 100.00%
0+ 0 nan nan 57.9339 0.0000 nan 100.00%
0+ 0 nan nan 55.7899 0.0000 nan 100.00%
0+ 0 nan nan 43.3086 0.0000 nan 100.00%
0 2 0.0000 14 43.3086 0.0000 114 100.00%
CPXPARAM_MIP_Cuts_LiftProj-MIRCut:LiftProj 0
CPXPARAM_MIP_Cuts_LiftProj-MIRCut:MIRCut 0
36
Node Left Objective IInf Best_Integer Best_Bound ItCnt Gap
0+ 0 nan nan 123.7135 0.0000 nan 100.00%
0+ 0 nan nan 108.6148 0.0000 nan 100.00%
0 0 0.0000 27 108.6148 0.0000 117 100.00%
0+ 0 nan nan 98.7082 0.0000 nan 100.00%
0 0 0.0000 24 98.7082 LiftProj:3 126 100.00%
0+ 0 nan nan 87.0253 0.0000 nan 100.00%
0+ 0 nan nan 65.8991 0.0000 nan 100.00%
0 2 0.0000 24 65.8991 0.0000 126 100.00%
CPXPARAM_MIP_Cuts_LiftProj-MIRCut:LiftProj 0
CPXPARAM_MIP_Cuts_LiftProj-MIRCut:MIRCut 0
37
Node Left Objective IInf Best_Integer Best_Bound ItCnt Gap
0+ 0 nan nan 123.7135 0.0000 nan 100.00%
0+ 0 nan nan 108.6148 0.0000 nan 100.00%
0 0 0.0000 27 108.6148 0.0000 118 100.00%
0+ 0 nan nan 74.7826 0.0000 nan 100.00%
0+ 0 nan nan 74.5456 0.0000 nan 100.00%
0+ 0 nan nan 61.3888 0.0000 nan 100.00%
0 2 0.0000 18 61.3888 0.0000 118 100.00%
CPXPARAM_MIP_Cuts_LiftProj-MIRCut:LiftProj 0
CPXPARAM_MIP_Cuts_LiftProj-MIRCut:MIRCut 0
38
Node Left Objective IInf Best_Integer Best_Bound ItCnt Gap
0+ 0 nan nan 123.7135 0.0000 nan 100.00%
0+ 0 nan nan 89.1896 0.0000 nan 100.00%
0 0 0.0000 23 89.1896 0.0000 119 100.00%
0+ 0 nan nan 83.5087 0.0000 nan 100.00%
0+ 0 nan nan 64.2486 0.0000 nan 100.00%
0+ 0 nan nan 60.8203 0.0000 nan 100.00%
0+ 0 nan nan 50.1209 0.0000 nan 100.00%
0 2 0.0000 19 50.1209 0.0000 119 100.00%
CPXPARAM_MIP_Cuts_LiftProj-MIRCut:LiftProj 0
CPXPARAM_MIP_Cuts_LiftProj-MIRCut:MIRCut 0
39
Node Left Objective IInf Best_Integer Best_Bound ItCnt Gap
0+ 0 nan nan 123.7135 0.0000 nan 100.00%
0+ 0 nan nan 89.1896 0.0000 nan 100.00%
0 0 0.0000 24 89.1896 0.0000 117 100.00%
0+ 0 nan nan 50.1463 0.0000 nan 100.00%
0+ 0 nan nan 44.8477 0.0000 nan 100.00%
0 2 0.0000 13 44.8477 0.0000 117 100.00%
CPXPARAM_MIP_Cuts_LiftProj-MIRCut:LiftProj 0
CPXPARAM_MIP_Cuts_LiftProj-MIRCut:MIRCut 0
